data;
param To := 5;
param From := 5;

param coverage:
	1	2	3	4	5:=
1	1	1	0	1	1
2	1	1	1	1	0
3	0	1	1	0	1
4	1	1	0	1	0
5	1	0	1	0	1;

param tot_pop :=
1 20500
2 19000
3 13600
4 16200
5 11600;
